(set-info :smt-lib-version 2.6)
(set-logic QF_FP)
(set-info :source "|
Generated by the tool Ultimate Automizer [1,2] which implements
an automata theoretic approach [3] to software verification.

This SMT script belongs to a set of SMT scripts that was generated by
applying Ultimate Automizer to benchmarks [4] from the SV-COMP 2019 [5,6].
This script might _not_ contain all SMT commands that are used by
Ultimate Automizer. In order to satisfy the restrictions of
the SMT-COMP we have to drop e.g., the commands for getting
values (resp. models), unsatisfiable cores and interpolants.

2019-04-27, Matthias Heizmann (heizmann@informatik.uni-freiburg.de)

[1] https://ultimate.informatik.uni-freiburg.de/automizer/
[2] Matthias Heizmann, Yu-Fang Chen, Daniel Dietsch, Marius Greitschus,
     Jochen Hoenicke, Yong Li, Alexander Nutz, Betim Musa, Christian
     Schilling, Tanja Schindler, Andreas Podelski: Ultimate Automizer
     and the Search for Perfect Interpolants - (Competition Contribution).
     TACAS (2) 2018: 447-451
[3] Matthias Heizmann, Jochen Hoenicke, Andreas Podelski: Software Model
     Checking for People Who Love Automata. CAV 2013:36-52
[4] https://github.com/sosy-lab/sv-benchmarks
[5] Dirk Beyer: Automatic Verification of C and Java Programs: SV-COMP 2019.
     TACAS (3) 2019: 133-155
[6] https://sv-comp.sosy-lab.org/2019/
|")
(set-info :license "https://creativecommons.org/licenses/by/4.0/")
(set-info :category "industrial")
(set-info :status sat)
(declare-fun v_currentRoundingMode_22_const_1497110575 () RoundingMode)
(declare-fun v___ieee754_pow_~t~1_9_const_938605228 () (_ FloatingPoint 11 53))
(declare-fun v_~P5_pow~0_1_const_543211651 () (_ FloatingPoint 11 53))
(declare-fun v_~P4_pow~0_1_const_1278169986 () (_ FloatingPoint 11 53))
(declare-fun v_~P3_pow~0_1_const_-605314431 () (_ FloatingPoint 11 53))
(declare-fun v_~P2_pow~0_1_const_1739994496 () (_ FloatingPoint 11 53))
(declare-fun v_~P1_pow~0_1_const_-210598777 () (_ FloatingPoint 11 53))
(declare-fun v___ieee754_pow_~u~0_1_const_937676516 () (_ FloatingPoint 11 53))
(declare-fun v___ieee754_pow_~v~0_1_const_874358629 () (_ FloatingPoint 11 53))
(declare-fun v___ieee754_pow_~t1~1_3_const_-2126021703 () (_ FloatingPoint 11 53))
(declare-fun v___ieee754_pow_~r~1_1_const_936644026 () (_ FloatingPoint 11 53))
(declare-fun v_~one_pow~0_3_const_1365703620 () (_ FloatingPoint 11 53))
(declare-fun v___ieee754_pow_~z~1_7_const_874858920 () (_ FloatingPoint 11 53))
(declare-fun v___ieee754_pow_~t~1_10_const_-2057129196 () (_ FloatingPoint 11 53))
(declare-fun v_~lg2_h_pow~0_1_const_333399804 () (_ FloatingPoint 11 53))
(declare-fun v___ieee754_pow_~p_h~0_9_const_3334792 () (_ FloatingPoint 11 53))
(declare-fun v___ieee754_pow_~p_l~0_7_const_8028298 () (_ FloatingPoint 11 53))
(declare-fun v_~lg2_pow~0_1_const_1597189483 () (_ FloatingPoint 11 53))
(declare-fun v_~lg2_l_pow~0_1_const_1087210232 () (_ FloatingPoint 11 53))
(declare-fun v_~two_pow~0_1_const_-1624373728 () (_ FloatingPoint 11 53))
(declare-fun v___ieee754_pow_~w~0_1_const_873447398 () (_ FloatingPoint 11 53))
(assert (let ((.cse0 (fp.add v_currentRoundingMode_22_const_1497110575 v___ieee754_pow_~u~0_1_const_937676516 v___ieee754_pow_~v~0_1_const_874358629))) (and (= (fp.sub v_currentRoundingMode_22_const_1497110575 v_~one_pow~0_3_const_1365703620 (fp.sub v_currentRoundingMode_22_const_1497110575 v___ieee754_pow_~r~1_1_const_936644026 .cse0)) v___ieee754_pow_~z~1_7_const_874858920) (= v___ieee754_pow_~t~1_9_const_938605228 (fp.mul v_currentRoundingMode_22_const_1497110575 .cse0 .cse0)) (= v___ieee754_pow_~u~0_1_const_937676516 (fp.mul v_currentRoundingMode_22_const_1497110575 v___ieee754_pow_~t~1_10_const_-2057129196 v_~lg2_h_pow~0_1_const_333399804)) (= v___ieee754_pow_~t1~1_3_const_-2126021703 (fp.sub v_currentRoundingMode_22_const_1497110575 .cse0 (fp.mul v_currentRoundingMode_22_const_1497110575 v___ieee754_pow_~t~1_9_const_938605228 (fp.add v_currentRoundingMode_22_const_1497110575 v_~P1_pow~0_1_const_-210598777 (fp.mul v_currentRoundingMode_22_const_1497110575 v___ieee754_pow_~t~1_9_const_938605228 (fp.add v_currentRoundingMode_22_const_1497110575 v_~P2_pow~0_1_const_1739994496 (fp.mul v_currentRoundingMode_22_const_1497110575 v___ieee754_pow_~t~1_9_const_938605228 (fp.add v_currentRoundingMode_22_const_1497110575 v_~P3_pow~0_1_const_-605314431 (fp.mul v_currentRoundingMode_22_const_1497110575 v___ieee754_pow_~t~1_9_const_938605228 (fp.add v_currentRoundingMode_22_const_1497110575 v_~P4_pow~0_1_const_1278169986 (fp.mul v_currentRoundingMode_22_const_1497110575 v___ieee754_pow_~t~1_9_const_938605228 v_~P5_pow~0_1_const_543211651))))))))))) (= v___ieee754_pow_~v~0_1_const_874358629 (fp.add v_currentRoundingMode_22_const_1497110575 (fp.mul v_currentRoundingMode_22_const_1497110575 (fp.sub v_currentRoundingMode_22_const_1497110575 v___ieee754_pow_~p_l~0_7_const_8028298 (fp.sub v_currentRoundingMode_22_const_1497110575 v___ieee754_pow_~t~1_10_const_-2057129196 v___ieee754_pow_~p_h~0_9_const_3334792)) v_~lg2_pow~0_1_const_1597189483) (fp.mul v_currentRoundingMode_22_const_1497110575 v___ieee754_pow_~t~1_10_const_-2057129196 v_~lg2_l_pow~0_1_const_1087210232))) (= (fp.sub v_currentRoundingMode_22_const_1497110575 (fp.div v_currentRoundingMode_22_const_1497110575 (fp.mul v_currentRoundingMode_22_const_1497110575 .cse0 v___ieee754_pow_~t1~1_3_const_-2126021703) (fp.sub v_currentRoundingMode_22_const_1497110575 v___ieee754_pow_~t1~1_3_const_-2126021703 v_~two_pow~0_1_const_-1624373728)) (fp.add v_currentRoundingMode_22_const_1497110575 v___ieee754_pow_~w~0_1_const_873447398 (fp.mul v_currentRoundingMode_22_const_1497110575 .cse0 v___ieee754_pow_~w~0_1_const_873447398))) v___ieee754_pow_~r~1_1_const_936644026) (= (fp.sub v_currentRoundingMode_22_const_1497110575 v___ieee754_pow_~v~0_1_const_874358629 (fp.sub v_currentRoundingMode_22_const_1497110575 .cse0 v___ieee754_pow_~u~0_1_const_937676516)) v___ieee754_pow_~w~0_1_const_873447398))))
(check-sat)
(exit)
